% Generado automáticamente desde ejemplo_pdf.mpl.
% No editar manualmente: use el conversor MPL.

n = 20;
m = 5;
p = [12, 4, 0, 4, 0];

escala_v = 100;
v = [0, 25, 50, 75, 100];

escala_costo = 1;
ce = [1, 2, 1, 1, 3];
ct = 20;
maxM = 18;

c = array2d(1..5, 1..5, [
    0, 2, 4, 5, 7,
    1, 0, 3, 4, 6,
    3, 2, 0, 2, 4,
    4, 2, 1, 0, 2,
    8, 5, 3, 2, 0
]);
